c E(0,1) E(1,0) E(0,2) E(2,0) E(1,2) E(2,1) E(0,3) E(3,0) E(1,3) E(3,1) E(2,3) E(3,2) E(0,4) E(4,0) E(1,4) E(4,1) E(2,4) E(4,2) E(3,4) E(4,3)
c 1      2      3      4      5      6      7      8      9      10     11     12     13     14     15     16     17     18     19     20     
p cnf 20 25
1 3 7 13 0
2 5 9 15 0
4 6 11 17 0
8 10 12 19 0
14 16 18 20 0
-1 2 0
1 -2 0
-3 4 0
3 -4 0
-5 6 0
5 -6 0
-7 8 0
7 -8 0
-9 10 0
9 -10 0
-11 12 0
11 -12 0
-13 14 0
13 -14 0
-15 16 0
15 -16 0
-17 18 0
17 -18 0
-19 20 0
19 -20 0